 c Output file from up_filter_clauses.sh 
p cnf 25 76
 -25 -20 -16 0 
 -25 9 -8 0 
 -25 24 10 0 
 -25 23 -2 0 
 -24 -9 7 0 
 -24 -15 5 0 
 -24 17 7 0 
 -24 -23 4 0 
 -24 21 -4 0 
 -23 -16 15 0 
 -23 6 2 0 
 -23 22 6 0 
 -23 -19 13 0 
 -23 -20 9 0 
 -22 -18 6 0 
 -22 -10 8 0 
 -22 14 -7 0 
 -22 -19 2 0 
 -22 20 -11 0 
 21 7 -4 0 
 21 5 -1 0 
 21 11 -1 0 
 21 -8 -2 0 
 -21 -13 10 0 
 20 3 1 0 
 -20 11 -7 0 
 -20 -11 7 0 
 -20 15 -13 0 
 -19 -15 -8 0 
 -19 18 17 0 
 -19 -13 -7 0 
 -18 -10 1 0 
 -18 12 3 0 
 -18 -16 12 0 
 -18 -14 -8 0 
 17 -11 -7 0 
 17 14 -3 0 
 -17 9 -1 0 
 -17 8 2 0 
 -17 -10 1 0 
 -17 -9 -3 0 
 16 13 -5 0 
 16 10 -3 0 
 16 7 -6 0 
 16 13 8 0 
 15 -11 1 0 
 15 -10 8 0 
 -15 -14 6 0 
 -15 -6 2 0 
 -14 -6 2 0 
 -14 13 2 0 
 -14 2 -1 0 
 -13 12 1 0 
 -13 -6 -2 0 
 -13 -9 -5 0 
 -13 10 -4 0 
 12 9 1 0 
 12 -10 -1 0 
 -12 -10 -4 0 
 -12 9 4 0 
 11 -7 2 0 
 11 -8 -3 0 
 -11 -8 -4 0 
 -11 4 -2 0 
 -11 -4 1 0 
 -11 4 2 0 
 10 -6 -1 0 
 -10 7 3 0 
 -9 -5 -3 0 
 -9 8 3 0 
 -8 -4 3 0 
 -7 5 -4 0 
 -6 5 3 0 
 -6 -4 1 0 
 -5 -3 1 0 
 -5 -3 -2 0 
